(declare-const delta_t Int)
(declare-const delta_i Int)
(declare-const delta_j Int)
(assert (exists
         ((|t'?1| Int) (|j'?2| Int) (|S1,0?3| Real) (|i'?4| Int)
            (KSUM1?5 Int) (|K1,0?6| Int) (K?7 Int) (|j'?8| Int)
            (|S1,0?9| Real) (|i'?10| Int) (KSUM1?11 Int) (|K1,0?12| Int)
            (K?13 Int) (|j'?14| Int) (|S1,0?15| Real) (|i'?16| Int)
            (KSUM1?17 Int) (|K1,0?18| Int) (K?19 Int) (|S1,0?20| Real)
            (|j'?21| Int) (KSUM1?22 Int) (|K1,0?23| Int) (K?24 Int)
            (|i'?25| Int) (|j'?26| Int) (nx?27 Int) (i?28 Int) (ny?29 Int)
            (j?30 Int) (tmax?31 Int) (t?32 Int))
         (and (<= (- t?32) 0) (< (+ (- tmax?31) t?32) 0) (<= (- K?24) 0)
                (<= (- |K1,0?23|) 0) (= (+ |K1,0?23| (- K?24)) 0)
                (<= (+ KSUM1?22 (- K?24)) 0)
                (= (+ (- |S1,0?20|) |j'?21| (- |K1,0?23|)) 0)
                (= (+ (- KSUM1?22) |K1,0?23|) 0) (= |S1,0?20| 0)
                (or (and (= K?24 0) (= (- |j'?21|) 0))
                      (and (<= (+ (- K?24) 1) 0) (<= (+ (- ny?29) 1) 0)
                             (<= (+ (- ny?29) |j'?21|) 0)
                             (<= (+ (- |j'?21|) 1) 0)))
                (= (+ |j'?21| (- K?24)) 0) (<= (- K?24) 0) (<= (- |j'?21|) 0)
                (<= (+ ny?29 (- |j'?21|)) 0) (<= (- K?19) 0)
                (<= (- |K1,0?18|) 0) (= (+ |K1,0?18| (- K?19)) 0)
                (<= (+ KSUM1?17 (- K?19)) 0)
                (= (+ (- |S1,0?15|) |i'?16| (- |K1,0?18|)) 0)
                (= (+ (- KSUM1?17) |K1,0?18|) 0) (= (+ |S1,0?15| -1) 0)
                (or (and (= K?19 0) (= (+ (- |j'?14|) |j'?21|) 0)
                           (= (+ (- |i'?16|) 1) 0))
                      (and (<= (+ (- K?19) 1) 0) (<= (+ (- nx?27) 2) 0)
                             (<= (- |j'?21|) 0) (<= (+ (- nx?27) |i'?16|) 0)
                             (<= (+ (- |j'?14|) ny?29) 0) (<= (- |j'?14|) 0)
                             (<= (+ (- |i'?16|) 2) 0)))
                (= (+ |i'?16| (- K?19) -1) 0) (<= (- K?19) 0)
                (< (- |i'?16|) 0) (<= (- |j'?14|) 0)
                (<= (+ nx?27 (- |i'?16|)) 0) (<= (- K?13) 0)
                (<= (- |K1,0?12|) 0) (= (+ |K1,0?12| (- K?13)) 0)
                (<= (+ KSUM1?11 (- K?13)) 0)
                (= (+ (- |S1,0?9|) |i'?10| (- |K1,0?12|)) 0)
                (= (+ (- KSUM1?11) |K1,0?12|) 0) (= |S1,0?9| 0)
                (or (and (= K?13 0) (= (+ (- |j'?8|) |j'?14|) 0)
                           (= (- |i'?10|) 0))
                      (and (<= (+ (- K?13) 1) 0) (<= (+ (- nx?27) 1) 0)
                             (<= (- |j'?14|) 0) (<= (+ |i'?10| (- nx?27)) 0)
                             (<= (+ (- |j'?8|) ny?29) 0)
                             (<= (+ (- |j'?8|) 1) 0) (<= (+ (- |i'?10|) 1) 0)))
                (= (+ |i'?10| (- K?13)) 0) (<= (- K?13) 0) (<= (- |i'?10|) 0)
                (<= (- |j'?8|) 0) (<= (+ (- |i'?10|) nx?27) 0) (<= (- K?7) 0)
                (<= (- |K1,0?6|) 0) (= (+ |K1,0?6| (- K?7)) 0)
                (<= (+ KSUM1?5 (- K?7)) 0)
                (= (+ (- |S1,0?3|) |i'?4| (- |K1,0?6|)) 0)
                (= (+ (- KSUM1?5) |K1,0?6|) 0) (= |S1,0?3| 0)
                (or (and (= K?7 0) (= (+ (- |j'?2|) |j'?8|) 0)
                           (= (- |i'?4|) 0))
                      (and (<= (+ (- K?7) 1) 0) (<= (+ (- nx?27) 2) 0)
                             (<= (- |j'?8|) 0) (<= (+ |i'?4| (- nx?27) 1) 0)
                             (<= (+ (- |j'?2|) ny?29 -1) 0) (<= (- |j'?2|) 0)
                             (<= (+ (- |i'?4|) 1) 0)))
                (= (+ |i'?4| (- K?7)) 0) (<= (- K?7) 0) (<= (- |i'?4|) 0)
                (<= (- |j'?2|) 0) (<= (+ (- |i'?4|) nx?27 -1) 0)
                (= (+ |j'?26| (- |j'?2|)) 0) (= (+ |i'?25| (- |i'?4|)) 0)
                (= (+ |t'?1| (- t?32) -1) 0) (= delta_t (+ |t'?1| (- t?32)))
                (= delta_i (+ |i'?25| (- i?28)))
                (= delta_j (+ |j'?26| (- j?30))))))
(check-sat)
